% Auto-generated by scripts/generate_dzn.py
% problem_type   = regex
% instance       = regex_24
% source_json    = instances_json/1_medium_blowup/regex_24.json
% blowup         = 9.470588235294118
% representation = NFA

mode = 1;

var_count = 35;
Q = 34;
S = 3;
q0 = 1;
F = {32, 33, 34};
d_dfa = array2d(1..34, 1..3, [
  0, 0, 0,
  0, 0, 0,
  0, 0, 0,
  0, 0, 0,
  0, 0, 0,
  0, 0, 0,
  0, 0, 0,
  0, 0, 0,
  0, 0, 0,
  0, 0, 0,
  0, 0, 0,
  0, 0, 0,
  0, 0, 0,
  0, 0, 0,
  0, 0, 0,
  0, 0, 0,
  0, 0, 0,
  0, 0, 0,
  0, 0, 0,
  0, 0, 0,
  0, 0, 0,
  0, 0, 0,
  0, 0, 0,
  0, 0, 0,
  0, 0, 0,
  0, 0, 0,
  0, 0, 0,
  0, 0, 0,
  0, 0, 0,
  0, 0, 0,
  0, 0, 0,
  0, 0, 0,
  0, 0, 0,
  0, 0, 0
]);
d_nfa = array2d(1..34, 1..3, [
  {2, 5}, {3}, {4},
  {2, 5}, {3}, {4},
  {2, 5}, {3}, {4},
  {2, 5}, {3}, {4},
  {}, {}, {6},
  {7}, {}, {},
  {8}, {9}, {10},
  {11}, {12}, {13},
  {11}, {12}, {13},
  {11}, {12}, {13},
  {14}, {15}, {16},
  {14}, {15}, {16},
  {14}, {15}, {16},
  {17}, {18}, {19},
  {17}, {18}, {19},
  {17}, {18}, {19},
  {20}, {21}, {22},
  {20}, {21}, {22},
  {20}, {21}, {22},
  {23}, {24}, {25},
  {23}, {24}, {25},
  {23}, {24}, {25},
  {26}, {27}, {28},
  {26}, {27}, {28},
  {26}, {27}, {28},
  {29}, {30}, {31},
  {29}, {30}, {31},
  {29}, {30}, {31},
  {32}, {33}, {34},
  {32}, {33}, {34},
  {32}, {33}, {34},
  {}, {}, {},
  {}, {}, {},
  {}, {}, {}
]);
